n = 6;

Min = 2;

Max = 2;

D = array2d(1..6, 1..6, [0, 101, 258, 569, 258, 108, 101, 0, 349, 670,
    253, 209, 258, 349, 0, 457, 516, 268, 569, 670, 457, 0, 543, 461,
    258, 253, 516, 543, 0, 248, 108, 209, 268, 461, 248, 0]);

